MST07
Position Depot: Random
Horizon for Depot: Small
Position of customers: Mixt
Distribution of the demand: Small
Width of time windows: Tight
Distribution of the service: Small

VEHICLE 
NUMBER 	 CAPACITY 
 8 	 	 45 
 
CUSTOMER
CUST NO. 	 XCOORD.  	 YCOORD. 	 DEMAND 	 READY TIME 	 DUE DATE 	 SERVICE TIME 
 0 	 	 34 	 	 886 	 	 0 	 	 0 	 	 1551 	 	 0 
  1 	 	 765 	 	 717 	 	 7 	 	 767 	 	 825 	 	 52 
  2 	 	 229 	 	 230 	 	 7 	 	 1225 	 	 1331 	 	 73 
  3 	 	 766 	 	 623 	 	 6 	 	 712 	 	 855 	 	 74 
  4 	 	 86 	 	 764 	 	 10 	 	 797 	 	 947 	 	 56 
  5 	 	 816 	 	 688 	 	 10 	 	 1037 	 	 1232 	 	 52 
  6 	 	 191 	 	 186 	 	 5 	 	 712 	 	 813 	 	 76 
  7 	 	 791 	 	 679 	 	 5 	 	 876 	 	 1054 	 	 63 
  8 	 	 263 	 	 224 	 	 8 	 	 607 	 	 770 	 	 70 
  9 	 	 114 	 	 812 	 	 10 	 	 693 	 	 849 	 	 86 
  10 	 	 741 	 	 716 	 	 8 	 	 946 	 	 1105 	 	 63 
  11 	 	 766 	 	 799 	 	 5 	 	 1364 	 	 1551 	 	 67 
  12 	 	 193 	 	 335 	 	 6 	 	 513 	 	 630 	 	 92 
  13 	 	 183 	 	 282 	 	 9 	 	 591 	 	 684 	 	 69 
  14 	 	 863 	 	 633 	 	 7 	 	 1468 	 	 1551 	 	 67 
  15 	 	 21 	 	 783 	 	 8 	 	 925 	 	 1018 	 	 68 
  16 	 	 108 	 	 666 	 	 5 	 	 132 	 	 306 	 	 54 
  17 	 	 212 	 	 236 	 	 6 	 	 794 	 	 957 	 	 92 
  18 	 	 769 	 	 611 	 	 8 	 	 746 	 	 863 	 	 50 
  19 	 	 96 	 	 858 	 	 6 	 	 30 	 	 211 	 	 65 
  20 	 	 209 	 	 273 	 	 10 	 	 518 	 	 701 	 	 96 
  21 	 	 727 	 	 572 	 	 8 	 	 782 	 	 836 	 	 75 
  22 	 	 813 	 	 611 	 	 6 	 	 1115 	 	 1200 	 	 77 
  23 	 	 102 	 	 668 	 	 5 	 	 442 	 	 626 	 	 97 
  24 	 	 764 	 	 565 	 	 5 	 	 1380 	 	 1551 	 	 72 
  25 	 	 241 	 	 228 	 	 6 	 	 913 	 	 987 	 	 76 
  26 	 	 708 	 	 595 	 	 9 	 	 1389 	 	 1477 	 	 63 
  27 	 	 143 	 	 279 	 	 7 	 	 898 	 	 1089 	 	 55 
  28 	 	 639 	 	 28 	 	 9 	 	 1021 	 	 1154 	 	 90 
  29 	 	 52 	 	 17 	 	 9 	 	 810 	 	 968 	 	 89 
  30 	 	 947 	 	 357 	 	 10 	 	 1393 	 	 1457 	 	 98 
  31 	 	 206 	 	 815 	 	 10 	 	 208 	 	 322 	 	 52 
  32 	 	 906 	 	 354 	 	 6 	 	 1280 	 	 1462 	 	 88 
  33 	 	 612 	 	 605 	 	 6 	 	 559 	 	 706 	 	 82 
  34 	 	 377 	 	 635 	 	 7 	 	 575 	 	 670 	 	 81 
  35 	 	 237 	 	 58 	 	 9 	 	 1422 	 	 1551 	 	 77 
  36 	 	 127 	 	 980 	 	 6 	 	 1 	 	 166 	 	 69 
  37 	 	 111 	 	 548 	 	 5 	 	 388 	 	 554 	 	 60 
  38 	 	 203 	 	 245 	 	 9 	 	 601 	 	 729 	 	 57 
  39 	 	 251 	 	 536 	 	 5 	 	 302 	 	 463 	 	 86 
  40 	 	 698 	 	 292 	 	 9 	 	 821 	 	 980 	 	 84 
  41 	 	 730 	 	 41 	 	 5 	 	 1011 	 	 1204 	 	 71 
  42 	 	 888 	 	 789 	 	 8 	 	 1174 	 	 1359 	 	 94 
  43 	 	 747 	 	 247 	 	 10 	 	 1145 	 	 1220 	 	 69 
  44 	 	 79 	 	 663 	 	 9 	 	 956 	 	 1009 	 	 91 
  45 	 	 997 	 	 292 	 	 9 	 	 1111 	 	 1244 	 	 75 
  46 	 	 377 	 	 538 	 	 9 	 	 1351 	 	 1428 	 	 64 
  47 	 	 0 	 	 377 	 	 10 	 	 490 	 	 561 	 	 56 
  48 	 	 53 	 	 734 	 	 6 	 	 139 	 	 201 	 	 100 
  49 	 	 159 	 	 118 	 	 7 	 	 657 	 	 855 	 	 66 
  50 	 	 379 	 	 939 	 	 7 	 	 581 	 	 648 	 	 54 
 